WARNING: for repeatability, setting FPU to use double precision
============================[ Problem Statistics ]=============================
|                                                                             |
|  Number of variables:            50                                         |
|  Number of clauses:             218                                         |
|  Parse time:                   0.00 s                                       |
|                                                                             |
============================[ Search Statistics ]==============================
| Conflicts |          ORIGINAL         |          LEARNT          | Progress |
|           |    Vars  Clauses Literals |    Limit  Clauses Lit/Cl |          |
===============================================================================
===============================================================================
restarts              : 1
conflicts             : 84             (250000 /sec)
decisions             : 92             (0.00 % random) (273810 /sec)
propagations          : 1062           (3160714 /sec)
conflict literals     : 344            (13.13 % deleted)
Memory used           : 20.00 MB
CPU time              : 0.000336 s

UNSATISFIABLE
